nN = 5;
nR = 15;
nH = 1;

a = [[19, 23, 24, 20, 20, 25, 16, 21, 24, 15, 17, 17, 20, 20, 20], [25, 24, 16, 21, 19, 17, 17, 19, 23, 21, 21, 23, 20, 15, 16], [16, 21, 25, 22, 24, 24, 16, 17, 15, 18, 15, 17, 18, 24, 18], [25, 24, 18, 19, 15, 18, 20, 22, 23, 18, 16, 19, 17, 15, 22], [25, 19, 21, 22, 20, 15, 20, 19, 18, 18, 17, 23, 17, 25, 25]];
c = [[[0, 0, 0, 0, 0, 0, 0, 0, 0, 0, 0, 0, 0, 0, 0], [34, 32, 39, 42, 30, 46, 35, 47, 41, 42, 33, 49, 41, 30, 46], [48, 39, 33, 34, 45, 45, 50, 34, 38, 46, 47, 34, 40, 50, 43], [31, 32, 44, 50, 48, 41, 41, 48, 44, 41, 45, 35, 34, 40, 36], [44, 46, 47, 47, 47, 37, 43, 42, 40, 44, 36, 38, 41, 31, 40]], [[0, 0, 0, 0, 0, 0, 0, 0, 0, 0, 0, 0, 0, 0, 0], [0, 0, 0, 0, 0, 0, 0, 0, 0, 0, 0, 0, 0, 0, 0], [49, 42, 46, 47, 43, 31, 44, 36, 35, 42, 50, 42, 36, 50, 40], [48, 30, 47, 47, 37, 49, 30, 49, 36, 40, 35, 41, 33, 41, 33], [42, 43, 44, 31, 45, 36, 46, 35, 43, 46, 46, 40, 38, 40, 44]], [[0, 0, 0, 0, 0, 0, 0, 0, 0, 0, 0, 0, 0, 0, 0], [0, 0, 0, 0, 0, 0, 0, 0, 0, 0, 0, 0, 0, 0, 0], [0, 0, 0, 0, 0, 0, 0, 0, 0, 0, 0, 0, 0, 0, 0], [40, 48, 49, 30, 40, 45, 30, 38, 50, 45, 47, 35, 33, 49, 40], [34, 42, 45, 48, 41, 49, 30, 39, 50, 41, 50, 38, 48, 42, 50]], [[0, 0, 0, 0, 0, 0, 0, 0, 0, 0, 0, 0, 0, 0, 0], [0, 0, 0, 0, 0, 0, 0, 0, 0, 0, 0, 0, 0, 0, 0], [0, 0, 0, 0, 0, 0, 0, 0, 0, 0, 0, 0, 0, 0, 0], [0, 0, 0, 0, 0, 0, 0, 0, 0, 0, 0, 0, 0, 0, 0], [39, 37, 49, 34, 34, 49, 31, 45, 46, 42, 31, 49, 33, 40, 41]], [[0, 0, 0, 0, 0, 0, 0, 0, 0, 0, 0, 0, 0, 0, 0], [0, 0, 0, 0, 0, 0, 0, 0, 0, 0, 0, 0, 0, 0, 0], [0, 0, 0, 0, 0, 0, 0, 0, 0, 0, 0, 0, 0, 0, 0], [0, 0, 0, 0, 0, 0, 0, 0, 0, 0, 0, 0, 0, 0, 0], [0, 0, 0, 0, 0, 0, 0, 0, 0, 0, 0, 0, 0, 0, 0]]];

q = [[[16], [12], [8], [20], [18], [10], [12], [8], [14], [23], [19], [14], [15], [15], [24]], [[16], [18], [19], [22], [13], [20], [9], [7], [25], [10], [20], [13], [11], [15], [16]], [[6], [20], [20], [5], [14], [12], [6], [15], [22], [18], [13], [23], [23], [18], [25]], [[18], [23], [25], [17], [25], [13], [23], [23], [13], [20], [20], [23], [17], [19], [24]], [[12], [17], [15], [25], [22], [5], [24], [19], [12], [25], [23], [21], [23], [19], [18]]];
Q = [[36], [37], [38], [48], [44]];
